p edge 258 914
e 1 4
e 1 20
e 1 22
e 1 41
e 1 44
e 1 51
e 1 64
e 1 75
e 1 77
e 1 82
e 1 84
e 1 143
e 1 174
e 1 176
e 2 3
e 2 13
e 2 16
e 2 20
e 2 29
e 2 55
e 2 67
e 2 69
e 2 83
e 2 115
e 2 116
e 2 121
e 2 152
e 2 166
e 2 183
e 3 6
e 3 10
e 3 12
e 3 14
e 3 28
e 3 37
e 3 50
e 3 53
e 3 73
e 3 110
e 3 225
e 3 249
e 4 20
e 4 26
e 4 33
e 4 83
e 4 84
e 4 102
e 4 127
e 4 144
e 4 185
e 4 190
e 5 21
e 5 26
e 5 30
e 5 57
e 5 81
e 5 90
e 5 92
e 5 167
e 5 180
e 5 229
e 6 7
e 6 14
e 6 32
e 6 45
e 6 48
e 6 50
e 6 51
e 6 53
e 6 58
e 6 68
e 6 71
e 6 73
e 6 74
e 6 79
e 6 135
e 6 210
e 6 228
e 6 251
e 7 14
e 7 32
e 7 48
e 7 50
e 7 51
e 7 58
e 7 59
e 7 63
e 7 71
e 7 73
e 7 84
e 7 104
e 7 128
e 7 135
e 7 148
e 7 160
e 7 217
e 8 10
e 8 17
e 8 18
e 8 20
e 8 45
e 8 49
e 8 146
e 8 157
e 8 165
e 8 210
e 9 29
e 9 45
e 9 89
e 9 90
e 9 101
e 9 107
e 9 108
e 9 125
e 9 142
e 9 163
e 9 181
e 10 17
e 10 35
e 10 43
e 10 58
e 10 64
e 10 69
e 10 71
e 10 72
e 10 77
e 10 125
e 10 133
e 11 19
e 11 23
e 11 24
e 11 30
e 11 57
e 11 76
e 11 80
e 11 113
e 11 126
e 11 129
e 11 131
e 11 155
e 11 202
e 11 227
e 12 34
e 12 37
e 12 44
e 12 71
e 12 81
e 12 94
e 12 152
e 12 181
e 12 206
e 13 15
e 13 29
e 13 59
e 13 63
e 13 139
e 13 152
e 13 159
e 13 166
e 13 183
e 13 205
e 13 217
e 14 35
e 14 44
e 14 48
e 14 50
e 14 53
e 14 64
e 14 68
e 14 71
e 14 73
e 14 91
e 14 119
e 14 150
e 14 234
e 14 235
e 15 31
e 15 39
e 15 52
e 15 70
e 15 86
e 15 94
e 15 159
e 15 205
e 16 25
e 16 52
e 16 60
e 16 70
e 16 73
e 16 84
e 16 85
e 16 114
e 17 21
e 17 28
e 17 35
e 17 42
e 17 49
e 17 82
e 17 133
e 17 146
e 17 149
e 17 155
e 18 33
e 18 54
e 18 61
e 18 83
e 18 93
e 18 102
e 18 104
e 18 121
e 18 130
e 18 141
e 18 172
e 18 223
e 19 46
e 19 65
e 19 66
e 19 87
e 19 126
e 19 129
e 19 131
e 19 171
e 19 238
e 20 44
e 20 51
e 20 69
e 20 121
e 20 176
e 21 23
e 21 26
e 21 30
e 21 57
e 21 81
e 21 87
e 21 122
e 21 131
e 21 189
e 21 227
e 22 31
e 22 38
e 22 40
e 22 75
e 22 99
e 22 110
e 22 140
e 22 163
e 22 165
e 22 209
e 23 30
e 23 54
e 23 78
e 23 155
e 23 186
e 23 195
e 23 199
e 23 227
e 23 231
e 23 254
e 24 55
e 24 64
e 24 98
e 24 113
e 24 133
e 24 169
e 24 189
e 24 202
e 25 34
e 25 52
e 25 60
e 25 106
e 25 148
e 25 152
e 25 226
e 26 57
e 26 81
e 26 185
e 26 255
e 27 28
e 27 40
e 27 43
e 27 56
e 27 57
e 27 67
e 27 80
e 27 105
e 27 118
e 27 193
e 27 215
e 27 257
e 28 35
e 28 42
e 28 47
e 28 53
e 28 79
e 28 91
e 28 111
e 28 133
e 28 134
e 28 225
e 28 248
e 29 37
e 29 108
e 29 142
e 29 152
e 29 166
e 29 183
e 29 217
e 30 36
e 30 80
e 30 89
e 30 100
e 30 105
e 30 162
e 30 203
e 30 213
e 30 214
e 30 227
e 31 39
e 31 108
e 31 165
e 31 209
e 31 220
e 32 35
e 32 42
e 32 48
e 32 74
e 32 79
e 32 127
e 32 128
e 32 130
e 32 135
e 32 221
e 32 222
e 33 46
e 33 61
e 33 65
e 33 66
e 33 83
e 33 84
e 33 104
e 33 112
e 33 127
e 33 138
e 33 144
e 33 145
e 33 188
e 33 190
e 34 46
e 34 62
e 34 65
e 34 66
e 34 72
e 34 94
e 34 114
e 34 119
e 34 211
e 34 212
e 35 42
e 35 50
e 35 69
e 35 77
e 35 127
e 35 128
e 35 130
e 35 133
e 35 150
e 36 86
e 36 92
e 36 100
e 36 105
e 36 106
e 36 162
e 36 168
e 36 192
e 36 213
e 36 214
e 36 250
e 37 68
e 37 110
e 37 132
e 37 148
e 38 75
e 38 88
e 38 99
e 38 101
e 38 103
e 38 114
e 38 125
e 38 132
e 38 139
e 38 154
e 38 178
e 39 58
e 39 65
e 39 66
e 39 108
e 39 109
e 39 142
e 39 145
e 39 151
e 39 159
e 40 56
e 40 67
e 40 75
e 40 99
e 40 153
e 40 158
e 40 173
e 40 176
e 40 200
e 41 78
e 41 84
e 41 111
e 41 172
e 41 199
e 41 200
e 42 53
e 42 79
e 42 133
e 42 134
e 42 141
e 42 156
e 42 161
e 42 221
e 42 222
e 43 56
e 43 57
e 43 58
e 43 64
e 43 71
e 43 72
e 43 124
e 43 134
e 43 193
e 44 47
e 44 51
e 44 53
e 44 59
e 44 116
e 44 150
e 44 234
e 44 235
e 45 74
e 45 97
e 45 107
e 45 210
e 46 51
e 46 56
e 46 61
e 46 65
e 46 66
e 46 114
e 46 145
e 46 165
e 47 79
e 47 90
e 47 91
e 47 116
e 47 154
e 47 177
e 47 248
e 48 50
e 48 51
e 48 55
e 48 58
e 48 71
e 48 74
e 48 79
e 48 135
e 49 50
e 49 53
e 49 131
e 49 146
e 49 156
e 49 157
e 49 170
e 50 53
e 50 58
e 50 71
e 50 73
e 50 97
e 50 150
e 51 55
e 51 56
e 51 58
e 51 65
e 51 66
e 51 74
e 52 60
e 52 68
e 52 70
e 52 73
e 52 94
e 52 132
e 52 201
e 53 73
e 53 79
e 53 122
e 53 131
e 53 134
e 54 96
e 54 98
e 54 117
e 54 121
e 54 130
e 54 172
e 54 174
e 54 199
e 54 233
e 54 253
e 55 64
e 55 115
e 55 116
e 55 169
e 55 179
e 56 65
e 56 66
e 56 67
e 56 71
e 56 124
e 57 76
e 57 80
e 57 81
e 57 105
e 57 118
e 57 193
e 57 215
e 58 64
e 58 65
e 58 66
e 58 71
e 58 72
e 59 63
e 59 73
e 59 139
e 59 148
e 59 217
e 60 63
e 60 68
e 60 70
e 60 73
e 60 120
e 60 132
e 60 201
e 61 65
e 61 66
e 61 104
e 61 127
e 61 145
e 61 188
e 62 69
e 62 87
e 62 244
e 63 73
e 63 89
e 63 109
e 63 120
e 63 148
e 64 71
e 64 72
e 64 77
e 64 169
e 64 179
e 65 66
e 65 114
e 66 114
e 67 85
e 67 93
e 67 98
e 67 113
e 68 70
e 68 110
e 68 132
e 68 201
e 69 77
e 69 121
e 69 128
e 69 187
e 69 244
e 70 73
e 70 94
e 70 132
e 70 187
e 70 201
e 71 72
e 71 124
e 72 77
e 72 119
e 72 122
e 72 123
e 72 136
e 72 211
e 72 212
e 73 148
e 73 217
e 74 210
e 75 99
e 75 101
e 75 103
e 75 110
e 75 132
e 75 139
e 75 140
e 75 151
e 75 178
e 75 182
e 76 80
e 76 95
e 76 140
e 76 153
e 76 158
e 76 178
e 77 122
e 78 200
e 78 231
e 78 242
e 79 134
e 79 135
e 79 150
e 79 177
e 80 91
e 80 105
e 80 118
e 80 215
e 80 258
e 81 100
e 81 152
e 81 162
e 81 181
e 81 230
e 82 107
e 82 124
e 82 143
e 82 149
e 82 194
e 83 84
e 83 85
e 83 93
e 83 102
e 83 127
e 83 130
e 83 144
e 83 190
e 84 85
e 84 104
e 84 127
e 84 144
e 84 190
e 85 93
e 85 98
e 85 113
e 85 121
e 85 160
e 86 123
e 86 146
e 87 122
e 87 131
e 87 189
e 87 238
e 88 154
e 89 109
e 89 118
e 89 142
e 89 168
e 89 180
e 90 92
e 90 101
e 90 154
e 90 163
e 90 180
e 90 181
e 91 119
e 91 146
e 91 248
e 91 258
e 92 109
e 92 180
e 92 185
e 92 250
e 93 98
e 93 102
e 93 113
e 93 130
e 94 97
e 95 153
e 95 158
e 95 164
e 96 98
e 96 102
e 96 104
e 96 112
e 96 117
e 96 236
e 96 237
e 96 253
e 98 111
e 98 113
e 98 133
e 98 143
e 98 189
e 98 204
e 98 253
e 99 101
e 99 103
e 99 110
e 99 132
e 99 139
e 99 140
e 99 178
e 99 208
e 100 105
e 100 162
e 100 184
e 100 203
e 100 213
e 100 214
e 100 216
e 100 230
e 101 103
e 101 132
e 101 137
e 101 139
e 101 151
e 101 163
e 101 178
e 101 181
e 101 182
e 102 117
e 102 130
e 102 245
e 102 246
e 103 132
e 103 139
e 103 151
e 103 163
e 103 178
e 103 182
e 104 112
e 104 126
e 105 118
e 105 162
e 105 175
e 105 203
e 105 213
e 105 214
e 105 215
e 106 140
e 106 152
e 106 168
e 106 192
e 106 226
e 107 124
e 108 109
e 108 142
e 108 151
e 108 159
e 109 142
e 109 151
e 109 159
e 109 218
e 110 132
e 110 140
e 110 249
e 111 113
e 111 134
e 111 143
e 111 161
e 111 172
e 111 199
e 111 204
e 111 225
e 111 256
e 112 126
e 112 138
e 112 144
e 112 171
e 113 133
e 113 143
e 113 189
e 113 202
e 113 204
e 114 125
e 115 116
e 117 174
e 117 207
e 117 233
e 118 168
e 118 175
e 118 180
e 118 215
e 119 211
e 119 212
e 120 203
e 120 213
e 120 214
e 121 130
e 121 160
e 121 172
e 122 131
e 122 189
e 123 136
e 126 129
e 126 131
e 126 138
e 127 128
e 127 130
e 127 144
e 127 190
e 128 130
e 128 187
e 129 131
e 129 138
e 130 172
e 131 189
e 132 139
e 132 178
e 132 201
e 133 189
e 134 161
e 134 256
e 135 160
e 136 151
e 136 159
e 137 175
e 138 144
e 139 178
e 139 252
e 141 156
e 141 161
e 141 204
e 141 223
e 142 151
e 142 159
e 143 204
e 144 190
e 145 165
e 145 188
e 147 149
e 147 157
e 147 194
e 147 239
e 149 198
e 149 208
e 149 211
e 149 212
e 149 239
e 150 234
e 150 235
e 151 159
e 151 182
e 152 166
e 152 181
e 152 183
e 153 158
e 155 227
e 156 157
e 156 161
e 156 170
e 157 170
e 157 194
e 158 166
e 159 205
e 161 206
e 161 256
e 162 184
e 162 213
e 162 214
e 162 216
e 162 230
e 163 181
e 164 173
e 164 232
e 165 209
e 166 183
e 166 192
e 167 224
e 168 180
e 168 192
e 172 199
e 173 200
e 173 232
e 174 207
e 174 233
e 177 196
e 177 197
e 182 240
e 183 192
e 184 230
e 191 207
e 195 254
e 196 197
e 196 198
e 197 198
e 198 208
e 198 211
e 198 212
e 203 213
e 203 214
e 207 233
e 208 211
e 208 212
e 209 218
e 211 212
e 213 214
e 215 247
e 219 241
e 219 243
e 220 221
e 220 222
e 221 222
e 228 251
e 234 235
e 236 237
e 245 246
